presolving:
(round 1, fast)       5107 del vars, 5100 del conss, 0 add conss, 2500 chg bounds, 50 chg sides, 0 chg coeffs, 0 upgd conss, 0 impls, 2869 clqs
   (0.1s) running MILP presolver
   (0.1s) MILP presolver found nothing
(round 2, exhaustive) 5107 del vars, 5100 del conss, 0 add conss, 2500 chg bounds, 50 chg sides, 0 chg coeffs, 2814 upgd conss, 0 impls, 2869 clqs
   (4.4s) probing: 1000/2550 (39.2%) - 0 fixings, 0 aggregations, 614272 implications, 0 bound changes
   (4.4s) probing: 1001/2550 (39.3%) - 0 fixings, 0 aggregations, 614766 implications, 0 bound changes
   (4.4s) probing aborted: 1000/1000 successive useless probings
   (4.5s) symmetry computation started: requiring (bin +, int -, cont +), (fixed: bin -, int +, cont -)
   (4.5s) no symmetry present
presolving (3 rounds: 3 fast, 2 medium, 2 exhaustive):
 5107 deleted vars, 5100 deleted constraints, 0 added constraints, 2500 tightened bounds, 0 added holes, 50 changed sides, 50 changed coefficients
 0 implications, 21663 cliques
presolved problem has 2550 variables (2550 bin, 0 int, 0 impl, 0 cont) and 2814 constraints
     50 constraints of type <knapsack>
   2764 constraints of type <setppc>
Presolving Time: 4.43

 time | node  | left  |LP iter|LP it/n|mem/heur|mdpt |vars |cons |rows |cuts |sepa|confs|strbr|  dualbound   | primalbound  |  gap   | compl. 
p 4.5s|     1 |     0 |     0 |     - |   locks|   0 |2550 |2815 |2814 |   0 |  0 |   0 |   0 | 0.000000e+00 | 2.869931e+03 |    Inf | unknown
p 4.9s|     1 |     0 |    63 |     - | vbounds|   0 |2550 |2819 |2814 |   0 |  0 |   4 |   0 | 0.000000e+00 | 2.112161e+03 |    Inf | unknown
  5.7s|     1 |     0 |  3459 |     - |    59M |   0 |2550 |2901 |2814 |   0 |  0 |  86 |   0 | 1.194856e+03 | 2.112161e+03 |  76.77%| unknown
  5.9s|     1 |     0 |  3567 |     - |    60M |   0 |2550 |2901 |2816 |   2 |  1 |  86 |   0 | 1.198900e+03 | 2.112161e+03 |  76.17%| unknown
  6.0s|     1 |     0 |  3765 |     - |    60M |   0 |2550 |2901 |2819 |   5 |  2 |  86 |   0 | 1.202656e+03 | 2.112161e+03 |  75.62%| unknown
  6.2s|     1 |     0 |  3788 |     - |    61M |   0 |2550 |2901 |2820 |   6 |  3 |  86 |   0 | 1.202901e+03 | 2.112161e+03 |  75.59%| unknown
  6.3s|     1 |     0 |  4067 |     - |    61M |   0 |2550 |2901 |2827 |  13 |  4 |  86 |   0 | 1.208798e+03 | 2.112161e+03 |  74.73%| unknown
  6.5s|     1 |     0 |  4241 |     - |    61M |   0 |2550 |2902 |2830 |  16 |  5 |  87 |   0 | 1.211461e+03 | 2.112161e+03 |  74.35%| unknown
  6.7s|     1 |     0 |  4465 |     - |    62M |   0 |2550 |2902 |2837 |  23 |  6 |  87 |   0 | 1.214164e+03 | 2.112161e+03 |  73.96%| unknown
  6.8s|     1 |     0 |  4492 |     - |    62M |   0 |2550 |2902 |2839 |  25 |  7 |  87 |   0 | 1.214366e+03 | 2.112161e+03 |  73.93%| unknown
  7.0s|     1 |     0 |  4529 |     - |    63M |   0 |2550 |2902 |2844 |  30 |  8 |  87 |   0 | 1.214470e+03 | 2.112161e+03 |  73.92%| unknown
  7.1s|     1 |     0 |  4555 |     - |    63M |   0 |2550 |2902 |2849 |  35 |  9 |  87 |   0 | 1.214774e+03 | 2.112161e+03 |  73.87%| unknown
  7.2s|     1 |     0 |  4576 |     - |    63M |   0 |2550 |2902 |2850 |  36 | 10 |  87 |   0 | 1.214838e+03 | 2.112161e+03 |  73.86%| unknown
  7.3s|     1 |     0 |  4632 |     - |    64M |   0 |2550 |2903 |2853 |  39 | 11 |  88 |   0 | 1.215465e+03 | 2.112161e+03 |  73.77%| unknown
  7.3s|     1 |     0 |  4670 |     - |    64M |   0 |2550 |2903 |2858 |  44 | 12 |  88 |   0 | 1.215790e+03 | 2.112161e+03 |  73.73%| unknown
 time | node  | left  |LP iter|LP it/n|mem/heur|mdpt |vars |cons |rows |cuts |sepa|confs|strbr|  dualbound   | primalbound  |  gap   | compl. 
  7.4s|     1 |     0 |  4673 |     - |    65M |   0 |2550 |2904 |2859 |  45 | 13 |  89 |   0 | 1.215794e+03 | 2.112161e+03 |  73.73%| unknown
  7.5s|     1 |     0 |  4732 |     - |    66M |   0 |2550 |2904 |2861 |  47 | 14 |  89 |   0 | 1.216548e+03 | 2.112161e+03 |  73.62%| unknown
  7.5s|     1 |     0 |  4780 |     - |    66M |   0 |2550 |2905 |2866 |  52 | 15 |  90 |   0 | 1.216883e+03 | 2.112161e+03 |  73.57%| unknown
  7.6s|     1 |     0 |  4799 |     - |    66M |   0 |2550 |2905 |2866 |  54 | 16 |  90 |   0 | 1.216907e+03 | 2.112161e+03 |  73.57%| unknown
  7.7s|     1 |     0 |  4830 |     - |    67M |   0 |2550 |2905 |2869 |  57 | 17 |  90 |   0 | 1.217279e+03 | 2.112161e+03 |  73.51%| unknown
  7.8s|     1 |     0 |  4904 |     - |    67M |   0 |2550 |2905 |2877 |  65 | 18 |  90 |   0 | 1.217936e+03 | 2.112161e+03 |  73.42%| unknown
  7.8s|     1 |     0 |  4962 |     - |    67M |   0 |2550 |2905 |2881 |  69 | 19 |  90 |   0 | 1.218161e+03 | 2.112161e+03 |  73.39%| unknown
  7.9s|     1 |     0 |  4995 |     - |    67M |   0 |2550 |2905 |2882 |  70 | 20 |  90 |   0 | 1.218333e+03 | 2.112161e+03 |  73.36%| unknown
  8.0s|     1 |     0 |  5024 |     - |    67M |   0 |2550 |2905 |2884 |  72 | 21 |  90 |   0 | 1.218381e+03 | 2.112161e+03 |  73.36%| unknown
L10.3s|     1 |     0 | 14108 |     - |    alns|   0 |2550 |2903 |2884 |  72 | 23 |  98 |   0 | 1.218381e+03 | 1.721789e+03 |  41.32%| unknown
L10.4s|     1 |     0 | 14108 |     - |    alns|   0 |2550 |2903 |2884 |  72 | 23 |  98 |   0 | 1.218381e+03 | 1.466128e+03 |  20.33%| unknown
L10.4s|     1 |     0 | 14108 |     - |    alns|   0 |2550 |2903 |2884 |  72 | 23 |  98 |   0 | 1.218381e+03 | 1.379582e+03 |  13.23%| unknown
 10.4s|     1 |     0 | 14108 |     - |    68M |   0 |2550 |2903 |2884 |  72 | 23 |  98 |   0 | 1.218381e+03 | 1.379582e+03 |  13.23%| unknown
 10.4s|     1 |     0 | 14108 |     - |    68M |   0 |2550 |2902 |2872 |  72 | 23 |  98 |   0 | 1.218381e+03 | 1.379582e+03 |  13.23%| unknown
 10.5s|     1 |     0 | 14155 |     - |    68M |   0 |2550 |2889 |2872 |  76 | 24 |  98 |   0 | 1.218487e+03 | 1.379582e+03 |  13.22%| unknown
 time | node  | left  |LP iter|LP it/n|mem/heur|mdpt |vars |cons |rows |cuts |sepa|confs|strbr|  dualbound   | primalbound  |  gap   | compl. 
 10.5s|     1 |     0 | 14204 |     - |    68M |   0 |2550 |2889 |2875 |  79 | 25 |  98 |   0 | 1.218593e+03 | 1.379582e+03 |  13.21%| unknown
 14.3s|     1 |     2 | 14204 |     - |    68M |   0 |2550 |2890 |2875 |  79 | 25 |  99 |  20 | 1.227007e+03 | 1.379582e+03 |  12.43%| unknown
*21.8s|    12 |     9 | 16106 |1004.5 |strongbr|  10 |2550 |2871 |2892 | 115 | 10 |  99 | 194 | 1.238230e+03 | 1.369257e+03 |  10.58%|   3.58%
*30.2s|    85 |     6 | 20782 | 187.2 |    LP  |  17 |2550 |2876 |2874 | 262 |  3 | 125 | 720 | 1.238230e+03 | 1.364216e+03 |  10.17%|  12.23%
 31.8s|   100 |     7 | 21470 | 165.8 |    79M |  17 |2550 |2875 |2856 | 275 |  1 | 125 | 805 | 1.238230e+03 | 1.364216e+03 |  10.17%|  17.14%
*38.8s|   159 |    58 | 25069 | 126.7 |    LP  |  21 |2550 |2873 |2859 | 374 |  4 | 125 |1069 | 1.240502e+03 | 1.341782e+03 |   8.16%|  17.55%
*38.8s|   160 |    57 | 25077 | 125.9 |    LP  |  21 |2550 |2873 |2859 | 374 |  2 | 125 |1069 | 1.240502e+03 | 1.341162e+03 |   8.11%|  17.59%
 54.4s|   200 |    73 | 31494 | 132.8 |    83M |  21 |2550 |2877 |2867 | 399 |  1 | 138 |1727 | 1.246166e+03 | 1.341162e+03 |   7.62%|  21.15%
L55.3s|   238 |    80 | 33330 | 119.3 |    alns|  21 |2550 |2877 |2856 | 401 |  0 | 138 |1757 | 1.246166e+03 | 1.339899e+03 |   7.52%|  21.28%
 56.3s|   300 |    92 | 35967 | 103.4 |    84M |  21 |2550 |2877 |2858 | 406 |  2 | 138 |1785 | 1.246251e+03 | 1.339899e+03 |   7.51%|  23.02%
o56.4s|   307 |    97 | 36066 | 101.3 |objpscos|  23 |2550 |2877 |2859 | 407 |  2 | 138 |1785 | 1.246251e+03 | 1.339530e+03 |   7.48%|  23.02%
 57.9s|   400 |   132 | 40609 |  89.1 |    85M |  23 |2550 |2877 |2858 | 442 |  0 | 138 |1812 | 1.249594e+03 | 1.339530e+03 |   7.20%|  24.73%
 59.2s|   500 |   170 | 43217 |  76.5 |    85M |  31 |2550 |2880 |2872 | 485 |  1 | 141 |1854 | 1.249594e+03 | 1.339530e+03 |   7.20%|  26.53%
L59.3s|   507 |   113 | 43465 |  75.9 |    rins|  31 |2550 |2880 |2867 | 486 |  1 | 141 |1854 | 1.249594e+03 | 1.323226e+03 |   5.89%|  27.16%
*60.1s|   575 |   142 | 45310 |  70.1 |    LP  |  31 |2550 |2880 |2867 | 503 |  6 | 142 |1874 | 1.254672e+03 | 1.322885e+03 |   5.44%|  27.38%
 time | node  | left  |LP iter|LP it/n|mem/heur|mdpt |vars |cons |rows |cuts |sepa|confs|strbr|  dualbound   | primalbound  |  gap   | compl. 
 61.1s|   600 |   150 | 47348 |  70.6 |    86M |  31 |2550 |2901 |2864 | 503 |  2 | 166 |1912 | 1.254672e+03 | 1.322885e+03 |   5.44%|  29.37%
 62.7s|   700 |   194 | 51534 |  66.5 |    87M |  31 |2550 |2916 |2865 | 525 |  0 | 181 |1967 | 1.256762e+03 | 1.322885e+03 |   5.26%|  32.27%
L63.5s|   775 |   210 | 53570 |  62.7 |    rins|  31 |2550 |2926 |2865 | 532 |  1 | 191 |1975 | 1.257191e+03 | 1.320796e+03 |   5.06%|  32.50%
 63.8s|   800 |   219 | 54065 |  61.3 |    87M |  35 |2550 |2935 |2859 | 534 |  0 | 200 |1991 | 1.257191e+03 | 1.320796e+03 |   5.06%|  32.56%
 65.2s|   900 |   264 | 56692 |  57.4 |    89M |  40 |2550 |2964 |2860 | 545 |  3 | 231 |2069 | 1.259979e+03 | 1.320796e+03 |   4.83%|  32.64%
L66.6s|   993 |   131 | 59341 |  54.7 |    rins|  40 |2550 |2999 |2865 | 556 |  1 | 266 |2127 | 1.260551e+03 | 1.310125e+03 |   3.93%|  36.29%
 66.6s|  1000 |   132 | 59402 |  54.4 |    90M |  40 |2550 |2999 |2865 | 556 |  1 | 266 |2128 | 1.260551e+03 | 1.310125e+03 |   3.93%|  36.36%
 68.2s|  1100 |   143 | 62489 |  52.3 |    90M |  40 |2550 |3002 |2860 | 601 |  1 | 271 |2158 | 1.260879e+03 | 1.310125e+03 |   3.91%|  38.45%
 69.5s|  1200 |   145 | 65060 |  50.0 |    91M |  40 |2550 |3017 |2865 | 614 |  2 | 295 |2209 | 1.260884e+03 | 1.310125e+03 |   3.91%|  39.76%
 71.3s|  1300 |   163 | 69346 |  49.5 |    92M |  40 |2550 |3022 |2870 | 671 |  1 | 306 |2249 | 1.263934e+03 | 1.310125e+03 |   3.65%|  41.00%
 72.4s|  1400 |   175 | 71355 |  47.4 |    92M |  40 |2550 |3060 |2874 | 682 |  0 | 345 |2315 | 1.263934e+03 | 1.310125e+03 |   3.65%|  41.00%
r72.9s|  1443 |   129 | 72059 |  46.5 |randroun|  40 |2550 |3066 |2871 | 684 |  1 | 351 |2356 | 1.263934e+03 | 1.307000e+03 |   3.41%|  41.16%
 74.3s|  1500 |   122 | 73853 |  45.9 |    94M |  40 |2550 |3107 |2870 | 692 |  2 | 397 |2474 | 1.263934e+03 | 1.307000e+03 |   3.41%|  43.75%
 76.6s|  1600 |   132 | 77071 |  45.0 |    94M |  40 |2550 |3107 |2866 | 721 |  2 | 402 |2685 | 1.263974e+03 | 1.307000e+03 |   3.40%|  44.01%
 78.6s|  1700 |   138 | 79903 |  44.1 |    94M |  40 |2550 |3113 |2871 | 750 |  1 | 416 |2761 | 1.264849e+03 | 1.307000e+03 |   3.33%|  44.57%
 time | node  | left  |LP iter|LP it/n|mem/heur|mdpt |vars |cons |rows |cuts |sepa|confs|strbr|  dualbound   | primalbound  |  gap   | compl. 
*79.8s|  1753 |   139 | 82082 |  44.0 |strongbr|  40 |2550 |3119 |2864 | 778 |  1 | 430 |2797 | 1.265989e+03 | 1.305929e+03 |   3.15%|  46.41%
*80.4s|  1792 |    38 | 83030 |  43.5 |    LP  |  40 |2550 |3101 |2870 | 806 |  1 | 436 |2808 | 1.265989e+03 | 1.290887e+03 |   1.97%|  48.03%
 80.4s|  1800 |    32 | 83144 |  43.4 |    95M |  40 |2550 |3100 |2857 | 806 |  0 | 436 |2808 | 1.265989e+03 | 1.290887e+03 |   1.97%|  49.91%
 83.4s|  1900 |     6 | 87876 |  43.6 |    95M |  40 |2550 |3152 |2858 | 816 |  0 | 497 |2961 | 1.269109e+03 | 1.290887e+03 |   1.72%|  79.77%

SCIP Status        : problem is solved [optimal solution found]
Solving Time (sec) : 85.28
Solving Nodes      : 1940
Primal Bound       : +1.29088707737971e+03 (27 solutions)
Dual Bound         : +1.29088707737971e+03
Gap                : 0.00 %
Solve Status: optimal
Solve Time: 85.28 seconds
